c 3 colouring graph reduction
p cnf 30 85
1 2 3
-1 -2
-1 -3
-2 -3
-1 -4
-2 -5
-3 -6
-1 -13
-2 -14
-3 -15
-1 -16
-2 -17
-3 -18
4 5 6
-4 -5
-4 -6
-5 -6
-4 -7
-5 -8
-6 -9
-4 -19
-5 -20
-6 -21
7 8 9
-7 -8
-7 -9
-8 -9
-7 -10
-8 -11
-9 -12
-7 -22
-8 -23
-9 -24
10 11 12
-10 -11
-10 -12
-11 -12
-10 -13
-11 -14
-12 -15
-10 -25
-11 -26
-12 -27
13 14 15
-13 -14
-13 -15
-14 -15
-13 -28
-14 -29
-15 -30
16 17 18
-16 -17
-16 -18
-17 -18
-16 -22
-17 -23
-18 -24
-16 -25
-17 -26
-18 -27
19 20 21
-19 -20
-19 -21
-20 -21
-19 -25
-20 -26
-21 -27
-19 -28
-20 -29
-21 -30
22 23 24
-22 -23
-22 -24
-23 -24
-22 -28
-23 -29
-24 -30
25 26 27
-25 -26
-25 -27
-26 -27
28 29 30
-28 -29
-28 -30
-29 -30
